
(set-logic ALL) 

(declare-datatype MyList ((Nil) (Cons (head Real) (tail MyList)) )) 
(declare-fun l0 () MyList) 
(declare-fun l1 () MyList) 
(declare-fun l2 () MyList) 
(declare-fun l3 () MyList) 
(declare-fun i0 () Real) 
(declare-fun i1 () Real) 
(assert (not (is-Cons l1)) )
(assert (or (= l0 Nil) (is-Nil Nil) (= l0 Nil) (= l2 l0)) )
(assert (or (is-Cons l1) (= l2 l0) (= l1 l1)) )
(assert (not (is-Cons Nil)) )
(assert (and (= l3 Nil) (is-Cons Nil) (is-Cons l1) (= l1 Nil)) )
(assert (and (= l2 l2) (= l2 l0) (= l2 Nil)) )
(assert (or (= l3 l2) (= l3 l1) (is-Nil Nil)) )
(assert (not (= l2 Nil)) )
(check-sat)
